NAME: A-n7-f3
COMMENT : -
TYPE : GVRP
DIMENSION : 9
EDGE_WEIGHT_TYPE : EUC_2D
CAPACITY : 100
AUTONOMY : 56
TIME LIMIT : 11
SPEED : 40.0
FUEL CONSUMPTION : 1.0
DEPOT_COORD_SECTION
0 82 76
CUSTOMER_COORD_SECTION
1 29 89 19 0.35072634886801246
2 58 30 21 0.08972581146477054
3 5 10 6 0.6876644372014789
4 50 93 19 0.5467625633216073
5 57 69 7 0.5505824485246592
6 23 15 12 0.7041267576275874
AFS_COORD_SECTION
7 12 25 0.5468893051477562
8 60 52 0.6025562782545556
9 39 88 0.710626017388248
EOF